
--- Job sp.gms Start 12/04/21 03:32:44 37.1.0 r07954d5 WEX-WEI x86 64bit/MS Windows
--- Applying:
    C:\GAMS\37\gmsprmNT.txt
    C:\Users\Erwin\Documents\GAMS\gamsconfig.yaml
--- GAMS Parameters defined
    Input D:\projects\OptimizationModels\ShortestPath\sp.gms
    PageWidth 130
    PageSize 0
    PageContr 3
    Action CE
    ScrDir D:\projects\OptimizationModels\ShortestPath\225a\
    SysDir C:\GAMS\37\
    WorkDir D:\projects\OptimizationModels\ShortestPath\
    LogOption 3
    DFormat 0
    TFormat 0
    ErrorLog 99
    IDE 1
Licensee: Eval License                                   S201210/0001CO-GEN
          Amsterdam Optimization Modeling Group,                     DCE378
          C:\Users\Erwin\Documents\GAMS\gamslice.txt
          Evaluation license: Not for commercial or production use
Processor information: 1 socket(s), 4 core(s), and 8 thread(s) available
GAMS 37.1.0   Copyright (C) 1987-2021 GAMS Development. All rights reserved
--- Starting compilation
--- sp.gms(190) 3 Mb
--- $echo File D:\projects\OptimizationModels\ShortestPath\network.html
--- sp.gms(252) 3 Mb
--- Starting execution: elapsed 0:00:00.041
--- sp.gms(73) 4 Mb
--- Generating LP model shortestPath
--- sp.gms(92) 4 Mb
---   51 rows  134 columns  400 non-zeroes
--- Executing CPLEX (Solvelink=2): elapsed 0:00:00.114

IBM ILOG CPLEX   37.1.0 r07954d5 Released Nov 11, 2021 WEI x86 64bit/MS Window

--- GAMS/Cplex Link licensed for continuous and discrete problems.
--- GMO setup time: 0.00s
--- GMO memory 0.52 Mb (peak 0.52 Mb)
--- Dictionary memory 0.00 Mb
--- Cplex 20.1.0.1 link memory 0.00 Mb (peak 0.01 Mb)
--- Starting Cplex

Version identifier: 20.1.0.1 | 2021-04-07 | 3a818710c
CPXPARAM_Advance                                 0
CPXPARAM_Threads                                 1
CPXPARAM_MIP_Display                             4
CPXPARAM_MIP_Pool_Capacity                       0
CPXPARAM_MIP_Tolerances_AbsMIPGap                0
Tried aggregator 1 time.
LP Presolve eliminated 14 rows and 51 columns.
Aggregator did 18 substitutions.
Reduced LP has 18 rows, 65 columns, and 117 nonzeros.
Presolve time = 0.00 sec. (0.11 ticks)

Iteration log . . .
Iteration:     1   Dual objective     =           360.708798

--- LP status (1): optimal.
--- Cplex Time: 0.00sec (det. 0.15 ticks)


Optimal solution found
Objective:          455.276523

--- Reading solution for model shortestPath
--- Executing after solve: elapsed 0:00:00.702
--- sp.gms(251) 4 Mb
Shell Execute    37.1.0 r07954d5 Released Nov 11, 2021 WEI x86 64bit/MS Window
--- Putfile fln D:\projects\OptimizationModels\ShortestPath\networkdata.js
*** Status: Normal completion
--- Job sp.gms Stop 12/04/21 03:32:46 elapsed 0:00:02.154
